# Solution for model r5_t18_m0_0 Batch Number: 2
# Finished Task: 18 / 18
# Makespan: 482.0, Total Distance: 423.0, Total Time: 0.9989
# R O S F Batch
0 0 20 0.0 0.0 -1
1 1 14 0.0 0.0 -1
2 2 8 0.0 0.0 -1
3 3 21 0.0 0.0 -1
4 4 19 0.0 0.0 -1
5 3 10 358.0 379.0 0
6 4 -1 371.0 401.0 1
7 3 -1 454.0 482.0 1
8 2 12 91.0 122.0 0
9 1 18 148.0 187.0 0
10 3 7 392.0 431.0 1
11 4 6 260.0 298.0 0
12 2 -1 359.0 395.0 1
13 1 -1 298.0 337.0 0
14 1 9 66.0 97.0 0
15 0 17 395.0 425.0 1
16 0 15 351.0 379.0 0
17 0 -1 440.0 473.0 1
18 1 22 206.0 229.0 0
19 4 11 202.0 235.0 0
20 0 16 31.0 64.0 0
21 3 5 51.0 81.0 0
22 1 13 241.0 274.0 0
